c Reduced graph for GEOM110 generated by Cyril Grelier
p edge 110 638
e 1 2
e 1 4
e 1 5
e 1 8
e 1 10
e 1 19
e 1 20
e 1 23
e 1 25
e 1 28
e 1 29
e 1 31
e 1 33
e 1 41
e 1 50
e 1 51
e 1 53
e 1 57
e 1 59
e 2 4
e 2 5
e 2 8
e 2 10
e 2 19
e 2 20
e 2 23
e 2 24
e 2 25
e 2 28
e 2 29
e 2 31
e 2 50
e 2 51
e 2 53
e 2 57
e 2 59
e 3 4
e 3 5
e 3 6
e 3 7
e 3 12
e 3 15
e 3 25
e 3 26
e 3 31
e 3 36
e 3 37
e 3 40
e 3 60
e 3 64
e 3 66
e 3 71
e 3 74
e 4 5
e 4 8
e 4 10
e 4 12
e 4 19
e 4 20
e 4 25
e 4 26
e 4 31
e 4 36
e 4 37
e 4 60
e 4 64
e 4 66
e 5 8
e 5 10
e 5 19
e 5 20
e 5 24
e 5 25
e 5 26
e 5 37
e 5 44
e 5 64
e 5 68
e 5 86
e 5 102
e 6 7
e 6 11
e 6 12
e 6 13
e 6 15
e 6 17
e 6 26
e 6 27
e 6 36
e 6 37
e 6 40
e 6 64
e 6 66
e 6 71
e 6 74
e 7 11
e 7 12
e 7 13
e 7 14
e 7 15
e 7 17
e 7 26
e 7 27
e 7 36
e 7 37
e 7 40
e 7 58
e 7 66
e 7 71
e 8 10
e 8 19
e 8 20
e 8 23
e 8 24
e 8 25
e 8 28
e 8 31
e 8 44
e 8 53
e 8 68
e 8 75
e 9 14
e 9 15
e 9 16
e 9 27
e 9 45
e 9 47
e 9 79
e 9 80
e 9 81
e 9 82
e 9 84
e 9 92
e 9 103
e 9 104
e 9 109
e 10 19
e 10 20
e 10 23
e 10 24
e 10 25
e 10 28
e 10 31
e 10 44
e 10 68
e 10 75
e 11 13
e 11 14
e 11 15
e 11 16
e 11 17
e 11 21
e 11 22
e 11 27
e 11 30
e 11 36
e 11 40
e 11 49
e 11 58
e 12 15
e 12 17
e 12 26
e 12 27
e 12 36
e 12 37
e 12 40
e 12 64
e 12 66
e 12 71
e 12 74
e 13 14
e 13 15
e 13 16
e 13 17
e 13 21
e 13 22
e 13 27
e 13 30
e 13 40
e 13 49
e 13 58
e 13 103
e 14 15
e 14 16
e 14 17
e 14 21
e 14 22
e 14 27
e 14 39
e 14 45
e 14 47
e 14 49
e 14 103
e 15 26
e 15 27
e 15 37
e 15 64
e 15 74
e 15 103
e 15 109
e 16 21
e 16 22
e 16 27
e 16 39
e 16 45
e 16 47
e 16 79
e 16 84
e 16 91
e 16 100
e 16 103
e 17 22
e 17 27
e 17 30
e 17 36
e 17 40
e 17 49
e 17 58
e 17 66
e 17 71
e 18 43
e 18 55
e 18 62
e 18 63
e 18 70
e 18 72
e 18 76
e 18 78
e 18 83
e 18 85
e 18 87
e 18 89
e 18 90
e 18 93
e 18 95
e 19 20
e 19 23
e 19 24
e 19 25
e 19 44
e 19 68
e 19 75
e 19 86
e 19 105
e 20 23
e 20 24
e 20 25
e 20 44
e 20 68
e 20 75
e 20 105
e 20 107
e 21 22
e 21 30
e 21 39
e 21 49
e 21 52
e 21 58
e 21 77
e 21 88
e 21 91
e 21 100
e 21 110
e 22 30
e 22 39
e 22 49
e 22 52
e 22 58
e 22 77
e 22 91
e 22 100
e 22 110
e 23 24
e 23 28
e 23 50
e 23 53
e 23 59
e 23 68
e 23 75
e 23 107
e 24 25
e 24 44
e 24 68
e 24 75
e 24 86
e 24 105
e 24 107
e 25 26
e 25 28
e 25 31
e 25 44
e 26 36
e 26 37
e 26 64
e 26 74
e 26 86
e 26 102
e 27 37
e 27 40
e 27 103
e 27 109
e 28 29
e 28 33
e 28 50
e 28 51
e 28 53
e 28 57
e 28 59
e 28 67
e 29 31
e 29 33
e 29 41
e 29 50
e 29 51
e 29 53
e 29 57
e 29 59
e 29 60
e 29 61
e 29 67
e 30 39
e 30 49
e 30 52
e 30 58
e 30 73
e 30 77
e 30 88
e 30 91
e 30 106
e 31 33
e 31 36
e 31 41
e 31 60
e 31 66
e 31 71
e 32 34
e 32 35
e 32 38
e 32 42
e 32 46
e 32 48
e 32 54
e 32 56
e 32 65
e 32 69
e 32 97
e 32 101
e 32 108
e 33 41
e 33 50
e 33 51
e 33 53
e 33 57
e 33 59
e 33 60
e 33 61
e 33 67
e 34 35
e 34 38
e 34 43
e 34 46
e 34 48
e 34 56
e 34 62
e 34 65
e 34 69
e 34 72
e 34 73
e 34 89
e 35 38
e 35 42
e 35 46
e 35 48
e 35 52
e 35 54
e 35 56
e 35 65
e 35 69
e 35 73
e 35 77
e 36 40
e 36 60
e 36 66
e 36 71
e 37 64
e 37 74
e 37 86
e 37 102
e 38 42
e 38 46
e 38 48
e 38 54
e 38 56
e 38 65
e 38 69
e 38 97
e 38 101
e 38 108
e 39 45
e 39 47
e 39 49
e 39 77
e 39 88
e 39 91
e 39 100
e 39 110
e 40 58
e 40 60
e 40 66
e 40 71
e 41 50
e 41 51
e 41 57
e 41 60
e 41 61
e 41 67
e 41 71
e 41 93
e 41 95
e 42 46
e 42 48
e 42 54
e 42 56
e 42 65
e 42 69
e 42 97
e 42 101
e 42 108
e 43 55
e 43 62
e 43 70
e 43 72
e 43 73
e 43 85
e 43 89
e 43 90
e 43 93
e 43 95
e 44 68
e 44 75
e 44 86
e 44 102
e 44 105
e 45 47
e 45 79
e 45 80
e 45 81
e 45 82
e 45 84
e 45 92
e 45 100
e 46 48
e 46 52
e 46 54
e 46 56
e 46 65
e 46 69
e 46 73
e 47 79
e 47 80
e 47 81
e 47 82
e 47 84
e 47 92
e 47 104
e 48 54
e 48 56
e 48 65
e 48 69
e 48 72
e 48 89
e 49 52
e 49 58
e 49 73
e 49 77
e 50 51
e 50 53
e 50 57
e 50 59
e 50 67
e 51 53
e 51 57
e 51 59
e 51 61
e 51 67
e 52 58
e 52 65
e 52 73
e 52 77
e 52 88
e 52 106
e 53 57
e 53 59
e 53 67
e 54 56
e 54 69
e 54 97
e 54 101
e 54 106
e 54 108
e 55 62
e 55 63
e 55 70
e 55 72
e 55 76
e 55 78
e 55 85
e 55 87
e 55 89
e 55 90
e 56 65
e 56 69
e 56 72
e 56 89
e 57 59
e 57 67
e 58 73
e 59 67
e 60 66
e 60 71
e 60 93
e 61 67
e 61 70
e 61 90
e 61 93
e 61 94
e 61 95
e 61 96
e 62 70
e 62 72
e 62 73
e 62 89
e 62 90
e 62 93
e 62 95
e 63 76
e 63 78
e 63 83
e 63 85
e 63 87
e 63 94
e 63 96
e 63 98
e 63 99
e 64 74
e 64 86
e 64 102
e 65 69
e 65 73
e 66 71
e 67 94
e 68 75
e 68 105
e 68 107
e 69 97
e 70 72
e 70 78
e 70 85
e 70 90
e 70 93
e 70 95
e 72 85
e 72 89
e 74 86
e 74 102
e 74 109
e 75 105
e 75 107
e 76 78
e 76 83
e 76 85
e 76 87
e 76 96
e 76 98
e 76 99
e 77 88
e 77 91
e 77 106
e 78 83
e 78 85
e 78 87
e 78 98
e 78 99
e 79 80
e 79 81
e 79 82
e 79 84
e 79 92
e 79 104
e 80 81
e 80 82
e 80 84
e 80 92
e 80 104
e 80 109
e 81 82
e 81 84
e 81 92
e 81 104
e 82 84
e 82 92
e 82 104
e 83 87
e 83 94
e 83 96
e 83 98
e 83 99
e 84 92
e 85 89
e 86 102
e 87 96
e 87 98
e 87 99
e 88 91
e 88 100
e 88 106
e 88 110
e 90 93
e 90 94
e 90 95
e 91 100
e 91 110
e 92 104
e 93 95
e 94 96
e 94 98
e 94 99
e 96 98
e 96 99
e 97 101
e 97 106
e 97 108
e 98 99
e 100 110
e 101 106
e 101 108
e 103 109
e 105 107
